NAME : brg180.1950.tour
COMMENT : Length = 1950
COMMENT : Found by LKH-3 [Keld Helsgaun] Sun Jan 11 02:04:36 2026
TYPE : TOUR
DIMENSION : 180
TOUR_SECTION
1
12
11
10
9
8
7
6
5
4
3
2
165
164
163
162
161
160
159
158
157
168
167
166
62
63
64
65
66
67
68
69
70
71
72
61
156
145
146
147
148
149
150
151
152
153
154
155
102
103
104
105
106
107
108
97
98
99
100
101
26
27
28
29
30
31
32
33
34
35
36
25
122
123
124
125
126
127
128
129
130
131
132
121
53
52
51
50
49
60
59
58
57
56
55
54
76
77
78
79
80
81
82
83
84
73
74
75
18
19
20
21
22
23
24
13
14
15
16
17
175
174
173
172
171
170
169
180
179
178
177
176
118
119
120
109
110
111
112
113
114
115
116
117
86
87
88
89
90
91
92
93
94
95
96
85
134
135
136
137
138
139
140
141
142
143
144
133
41
40
39
38
37
48
47
46
45
44
43
42
-1
EOF
